NAME: ACTUAL_TOURS/amz2496
TYPE: TOUR
COMMENT: RouteID_1a1a4c7c-7515-465f-8635-be9990dfaba2
DIMENSION: 119
TOUR_SECTION
97
95
56
6
59
41
78
105
90
85
16
96
48
103
113
29
68
99
104
11
67
2
43
114
53
60
92
30
58
72
5
4
118
12
70
76
62
106
110
27
7
9
26
13
74
47
57
80
102
21
1
82
64
98
8
93
20
18
94
111
69
55
61
84
23
88
73
45
10
86
25
101
33
119
36
51
38
71
52
34
24
115
87
91
42
28
107
65
77
14
54
22
39
108
15
19
31
37
17
100
32
83
46
81
116
109
79
75
63
89
66
3
40
117
49
44
50
35
112
-1
EOF
